; benchmark generated from python API
(set-info :status unknown)
(declare-datatypes ((RealState 0)) (((RMk1 (rval1 Real)) (RMk2 (rval2 Real)))))
 (assert
 (forall ((|v17:0| Real) )(forall ((|v16:1| Real) )(forall ((|v15:2| Real) )(forall ((|v14:3| Real) )(forall ((|v13:4| Real) )(forall ((|v12:5| Real) )(exists ((|v11:6_st| RealState) (val!9870 Real) )(exists ((|v10:7_st| RealState) (val!9871 Real) )(exists ((|v9:8_st| RealState) (val!9872 Real) )(exists ((|v8:9_st| RealState) (val!9873 Real) )(exists ((|v7:10_st| RealState) (val!9874 Real) )(exists ((|v6:11_st| RealState) (val!9875 Real) )(forall ((|v5:12| Real) )(forall ((|v4:13| Real) )(forall ((|v3:14| Real) )(forall ((|v2:15| Real) )(forall ((|v1:16| Real) )(forall ((|v0:17| Real) )(let ((?x4143 (* 7.0 |v4:13|)))
 (let ((?x7369 (- 20.0)))
 (let ((?x8717 (* ?x7369 |v5:12|)))
 (let ((?x7172 (- 10.0)))
 (let ((?x2384 (* ?x7172 |v15:2|)))
 (let ((?x7112 (rval2 |v11:6_st|)))
 (let ((?x9404 (* 9.0 ?x7112)))
 (let ((?x6401 (rval2 |v9:8_st|)))
 (let ((?x9102 (- 9.0)))
 (let ((?x1019 (* ?x9102 ?x6401)))
 (let ((?x4583 (+ (+ (+ (+ (+ (* ?x7172 |v13:4|) (* (- 16.0) |v0:17|)) ?x1019) ?x9404) ?x2384) ?x8717)))
 (let ((?x856 (- 5.0)))
 (let ((?x4001 (* 10.0 |v0:17|)))
 (let ((?x2423 (* 3.0 |v13:4|)))
 (let ((?x1065 (+ (+ (+ (* 10.0 (rval2 |v10:7_st|)) (* (- 8.0) |v12:5|)) (* 16.0 |v2:15|)) ?x2423)))
 (let ((?x9322 (+ (+ ?x1065 (* (- 14.0) (rval2 |v7:10_st|))) (* (- 6.0) (rval2 |v6:11_st|)))))
 (let ((?x2563 (- 15.0)))
 (let ((?x1729 (* 15.0 |v1:16|)))
 (let ((?x8237 (* 11.0 |v1:16|)))
 (let ((?x6807 (* 0.0 |v4:13|)))
 (let ((?x2295 (+ (+ (+ (* (- 16.0) |v12:5|) (* 18.0 (rval2 |v6:11_st|))) (* 0.0 |v5:12|)) ?x6807)))
 (let ((?x2837 (* 12.0 |v4:13|)))
 (let ((?x4606 (* 8.0 |v3:14|)))
 (let ((?x2014 (rval2 |v6:11_st|)))
 (let ((?x4934 (- 4.0)))
 (let ((?x2435 (* ?x4934 ?x2014)))
 (let ((?x9234 (+ (+ (+ (* (- 13.0) |v5:12|) (* (- 6.0) |v13:4|)) (* 15.0 |v16:1|)) (* (- 18.0) |v14:3|))))
 (let (($x7257 (or (<= (+ (+ (+ ?x9234 ?x2435) ?x4606) ?x2837) 14.0) (<= (+ (+ (+ ?x2295 (* (- 6.0) |v12:5|)) ?x8237) ?x1729) ?x2563))))
 (let ((?x6528 (rval2 |v7:10_st|)))
 (let ((?x7108 (- 16.0)))
 (let ((?x6311 (* ?x7108 |v16:1|)))
 (let ((?x727 (* 9.0 |v14:3|)))
 (let ((?x6395 (+ (+ (+ (+ (* 15.0 (rval2 |v10:7_st|)) (* (- 3.0) |v3:14|)) ?x6311) ?x727) ?x6311)))
 (let ((?x6913 (* 11.0 |v13:4|)))
 (let ((?x6828 (- 8.0)))
 (let ((?x7188 (* ?x6828 |v2:15|)))
 (let ((?x8076 (- 7.0)))
 (let ((?x5357 (* ?x8076 |v5:12|)))
 (let ((?x5182 (+ (+ (+ (* (- 14.0) ?x7112) (* 3.0 |v12:5|)) (* 10.0 ?x6528)) ?x5357)))
 (let (($x7850 (or (<= (+ (+ (+ ?x5182 (* (- 12.0) (rval2 |v8:9_st|))) ?x7188) ?x6913) ?x9102) (<= (+ (+ ?x6395 (* 7.0 |v16:1|)) ?x6528) ?x856))))
 (let ((?x2530 (* ?x7108 |v13:4|)))
 (let ((?x7459 (* 16.0 |v5:12|)))
 (let ((?x1959 (* 13.0 |v3:14|)))
 (let ((?x2222 (+ (+ (* (- 12.0) (rval2 |v10:7_st|)) (* (- 1.0) ?x6528)) (* 19.0 ?x7112))))
 (let ((?x4154 (* ?x7172 |v2:15|)))
 (let ((?x6015 (- 2.0)))
 (let ((?x8619 (* ?x6015 |v13:4|)))
 (let ((?x8221 (* 7.0 ?x6528)))
 (let ((?x3189 (+ (+ (+ (+ (* ?x7369 |v2:15|) (* ?x8076 ?x6401)) (* (- 12.0) ?x7112)) ?x8221) ?x8619)))
 (let (($x8926 (and (<= (+ (+ ?x3189 ?x4154) (* 0.0 |v14:3|)) 0.0) (<= (+ (+ (+ (+ ?x2222 ?x1959) ?x7459) ?x2530) (* 16.0 ?x6401)) ?x7369))))
 (let (($x3815 (and (or $x8926 $x7850) (or $x7257 (and (<= (+ ?x9322 ?x4001) ?x856) (<= (+ ?x4583 ?x4143) 12.0))))))
 (let ((?x7054 (rval2 |v8:9_st|)))
 (let ((?x3398 (- 17.0)))
 (let ((?x5546 (* ?x3398 ?x7054)))
 (let ((?x2364 (- 3.0)))
 (let ((?x7919 (* ?x2364 |v3:14|)))
 (let ((?x699 (+ (+ (+ (+ (* ?x7369 ?x7112) (* 6.0 |v13:4|)) (* 19.0 ?x2014)) ?x7919) ?x5546)))
 (let ((?x1994 (* ?x6828 |v3:14|)))
 (let ((?x5600 (* 8.0 |v2:15|)))
 (let ((?x8383 (* 3.0 ?x7054)))
 (let ((?x2579 (- 12.0)))
 (let ((?x7928 (* ?x2579 |v5:12|)))
 (let ((?x3896 (+ (+ (+ (+ (* ?x6015 |v15:2|) (* 8.0 ?x7054)) (* ?x6828 |v5:12|)) ?x7928) ?x8383)))
 (let (($x648 (or (<= (+ (+ ?x3896 ?x5600) ?x1994) ?x7172) (<= (+ (+ ?x699 (* ?x7172 |v17:0|)) ?x2530) 1.0))))
 (let ((?x5219 (* 19.0 |v0:17|)))
 (let ((?x6228 (* 3.0 |v15:2|)))
 (let ((?x1155 (+ (+ (+ (* ?x9102 ?x2014) (* 4.0 (rval2 |v10:7_st|))) (* 18.0 |v12:5|)) (* ?x6015 ?x6528))))
 (let ((?x8130 (- 6.0)))
 (let ((?x5248 (* ?x8130 |v3:14|)))
 (let ((?x1588 (* ?x856 |v2:15|)))
 (let ((?x7977 (* 13.0 ?x6401)))
 (let ((?x6845 (* 4.0 |v3:14|)))
 (let ((?x2370 (+ (+ (+ (* (- 13.0) |v15:2|) (* 19.0 |v12:5|)) (* 14.0 |v3:14|)) ?x6845)))
 (let (($x6760 (or (<= (+ (+ (+ ?x2370 ?x7977) ?x1588) ?x5248) ?x4934) (<= (+ (+ (+ ?x1155 ?x6228) ?x5219) ?x5546) 9.0))))
 (let ((?x5750 (- 1.0)))
 (let ((?x6390 (* ?x2563 |v2:15|)))
 (let ((?x1376 (* ?x8076 ?x2014)))
 (let ((?x4281 (* 8.0 ?x6401)))
 (let ((?x4613 (+ (+ (+ (* 2.0 (rval2 |v10:7_st|)) (* 14.0 ?x6528)) (* (- 19.0) |v1:16|)) ?x4281)))
 (let ((?x6000 (* 8.0 |v13:4|)))
 (let ((?x6840 (* 19.0 |v14:3|)))
 (let ((?x1050 (* ?x5750 |v0:17|)))
 (let ((?x6035 (* 18.0 ?x6401)))
 (let ((?x6432 (+ (+ (+ (* 6.0 |v2:15|) (* 5.0 ?x2014)) (* ?x6828 (rval2 |v10:7_st|))) ?x6035)))
 (let (($x305 (or (<= (+ (+ (+ ?x6432 ?x1050) ?x6840) ?x6000) 3.0) (<= (+ (+ (+ ?x4613 ?x2435) ?x1376) ?x6390) ?x5750))))
 (let ((?x3081 (- 13.0)))
 (let ((?x3353 (* ?x3081 |v0:17|)))
 (let ((?x8846 (- 18.0)))
 (let ((?x3885 (* ?x8846 |v15:2|)))
 (let ((?x3611 (+ (+ (+ (+ (* ?x856 |v0:17|) (* 11.0 ?x2014)) (* ?x2364 ?x6401)) ?x3885) ?x8619)))
 (let ((?x4547 (* 2.0 |v0:17|)))
 (let ((?x1331 (* ?x6828 |v16:1|)))
 (let ((?x6208 (+ (+ (+ (+ ?x5546 (* ?x2563 ?x6401)) (* ?x8846 |v5:12|)) (* ?x8130 |v15:2|)) ?x1331)))
 (let (($x1966 (or (<= (+ (+ ?x6208 (* (- 19.0) ?x6401)) ?x4547) ?x2563) (<= (+ (+ ?x3611 (* ?x856 |v17:0|)) ?x3353) ?x7108))))
 (let ((?x5325 (* ?x2364 |v4:13|)))
 (let ((?x2367 (- 14.0)))
 (let ((?x8757 (* ?x2367 ?x2014)))
 (let ((?x8096 (+ (+ (+ (+ (* 15.0 ?x6401) (* ?x8846 ?x7112)) (* 8.0 ?x7112)) ?x8757) ?x5325)))
 (let ((?x7698 (+ (+ (+ (+ (* ?x7172 ?x6528) |v15:2|) (* 12.0 |v14:3|)) (* 13.0 |v15:2|)) (* ?x2364 (rval2 |v10:7_st|)))))
 (let ((?x9420 (* ?x2367 |v1:16|)))
 (let ((?x792 (* ?x4934 |v4:13|)))
 (let ((?x6152 (- 11.0)))
 (let ((?x6710 (* ?x6152 |v5:12|)))
 (let ((?x4971 (+ (+ (+ (+ (* 15.0 |v14:3|) ?x4281) (* 2.0 |v14:3|)) (* ?x6152 |v1:16|)) ?x6710)))
 (let (($x8866 (or (<= (+ (+ ?x4971 ?x792) ?x9420) 2.0) (<= (+ (+ ?x7698 (* ?x9102 |v17:0|)) (* 19.0 ?x6528)) 10.0))))
 (let ((?x8040 (* ?x6828 ?x7054)))
 (let ((?x4325 (* ?x2563 |v1:16|)))
 (let ((?x866 (+ (+ (+ (* 12.0 ?x6401) (* ?x3398 ?x2014)) (* ?x5750 |v3:14|)) (* 11.0 ?x7112))))
 (let ((?x1156 (* 14.0 |v4:13|)))
 (let ((?x5764 (* 5.0 ?x2014)))
 (let ((?x6902 (+ (+ (+ (+ (* 18.0 |v17:0|) (* ?x7369 |v13:4|)) (* ?x9102 |v12:5|)) ?x5764) (* ?x4934 |v15:2|))))
 (let (($x2485 (and (<= (+ (+ ?x6902 ?x1156) (* ?x2364 ?x2014)) ?x5750) (<= (+ (+ (+ ?x866 ?x4325) ?x8040) (* ?x6828 |v15:2|)) 5.0))))
 (let ((?x7830 (* ?x7369 |v2:15|)))
 (let ((?x1354 (+ (+ (+ (* 13.0 |v14:3|) (* 8.0 ?x7054)) (* ?x7108 |v5:12|)) (* (- 19.0) |v17:0|))))
 (let ((?x996 (* ?x3081 |v16:1|)))
 (let ((?x266 (+ (+ (+ (+ (* 4.0 ?x7054) (* ?x3398 |v16:1|)) (* 6.0 |v17:0|)) ?x6228) ?x2530)))
 (let (($x4043 (or (<= (+ (+ ?x266 (* ?x6152 ?x6401)) ?x996) 2.0) (<= (+ (+ (+ ?x1354 (* 0.0 ?x6528)) (* ?x8130 ?x7112)) ?x7830) 7.0))))
 (let ((?x6678 (* 3.0 ?x2014)))
 (let ((?x3359 (* ?x856 ?x6401)))
 (let ((?x261 (* ?x8130 |v13:4|)))
 (let ((?x1080 (+ (+ (+ (+ (* 4.0 |v16:1|) (* ?x5750 |v2:15|)) (* ?x8846 |v4:13|)) ?x261) ?x3359)))
 (let ((?x4217 (* 4.0 |v13:4|)))
 (let ((?x8234 (+ (+ (+ (* 6.0 ?x7054) (* ?x2367 ?x6401)) (* (- 19.0) |v4:13|)) (* ?x2364 |v12:5|))))
 (let (($x1875 (and (<= (+ (+ (+ ?x8234 ?x4217) (* ?x6015 |v12:5|)) ?x6807) ?x6015) (<= (+ (+ ?x1080 ?x1729) ?x6678) 8.0))))
 (let (($x1386 (and (and (and $x1875 $x4043) (and $x2485 $x8866)) (<= (+ (+ ?x8096 (* (- 19.0) |v12:5|)) (* 0.0 ?x7054)) 7.0))))
 (let ((?x2823 (* ?x6015 |v1:16|)))
 (let ((?x4385 (+ (+ (+ (+ (* 16.0 ?x2014) (* 0.0 ?x7112)) ?x5546) (* ?x2563 |v12:5|)) ?x2823)))
 (let ((?x3207 (* ?x6015 |v15:2|)))
 (let ((?x1233 (+ (+ (+ (* 19.0 |v3:14|) (* 15.0 |v15:2|)) (* (- 19.0) |v15:2|)) (* ?x856 |v14:3|))))
 (let (($x8357 (and (<= (+ (+ (+ ?x1233 (* 17.0 |v12:5|)) (* ?x5750 ?x6401)) ?x3207) ?x3398) (<= (+ (+ ?x4385 ?x4547) (* ?x8846 (rval2 |v10:7_st|))) ?x8846))))
 (let ((?x5890 (* 15.0 |v16:1|)))
 (let ((?x8015 (* ?x2579 |v2:15|)))
 (let ((?x7845 (rval2 |v10:7_st|)))
 (let ((?x6755 (* 9.0 ?x7845)))
 (let ((?x3958 (+ (+ (+ (* 14.0 |v17:0|) (* (- 19.0) |v1:16|)) (* 14.0 ?x6401)) ?x6755)))
 (let ((?x1931 (* 17.0 |v14:3|)))
 (let ((?x6582 (+ (+ (+ (+ (* 16.0 |v16:1|) (* 13.0 |v14:3|)) (* ?x5750 ?x6528)) ?x996) ?x1931)))
 (let (($x3757 (and (<= (+ (+ ?x6582 (* ?x8846 |v17:0|)) |v3:14|) ?x3398) (<= (+ (+ (+ ?x3958 (* 0.0 ?x6401)) ?x8015) ?x5890) ?x8846))))
 (let ((?x4094 (* 13.0 |v5:12|)))
 (let ((?x1716 (* 7.0 ?x6401)))
 (let ((?x9221 (+ (+ (+ (+ ?x1376 (* (- 19.0) ?x7845)) (* ?x4934 |v0:17|)) (* ?x2563 |v0:17|)) (* ?x856 ?x7054))))
 (let ((?x267 (* 16.0 ?x7112)))
 (let ((?x1660 (* 2.0 ?x7845)))
 (let ((?x1228 (* ?x8076 |v4:13|)))
 (let ((?x7050 (+ (+ (+ (+ (* ?x9102 |v13:4|) (* 6.0 |v17:0|)) (* ?x4934 |v1:16|)) ?x1228) ?x1660)))
 (let (($x5974 (or (<= (+ (+ ?x7050 ?x267) ?x261) ?x4934) (<= (+ (+ ?x9221 ?x1716) ?x4094) 0.0))))
 (let ((?x4272 (* 2.0 |v5:12|)))
 (let ((?x4936 (* 5.0 ?x6528)))
 (let ((?x4678 (+ (+ (+ (+ |v5:12| (* ?x6828 |v0:17|)) (* 16.0 |v12:5|)) (* 12.0 ?x6401)) ?x8040)))
 (let ((?x6734 (+ (+ (+ (+ (+ (* 18.0 |v12:5|) (* ?x2579 |v1:16|)) |v4:13|) |v0:17|) ?x9404) (* ?x6828 ?x2014))))
 (let (($x5113 (or (<= (+ ?x6734 (* 4.0 ?x7112)) 2.0) (<= (+ (+ ?x4678 ?x4936) ?x4272) 12.0))))
 (let ((?x4541 (* 18.0 ?x2014)))
 (let ((?x2494 (+ (+ (+ (+ (* 4.0 |v0:17|) (* ?x8130 ?x6528)) ?x5546) (* 4.0 |v1:16|)) (* ?x7172 ?x7845))))
 (let ((?x4748 (* ?x7172 ?x6528)))
 (let ((?x5308 (* ?x2579 |v17:0|)))
 (let ((?x6937 (- 19.0)))
 (let ((?x1948 (* ?x6937 |v15:2|)))
 (let ((?x7484 (+ (+ (+ (+ (* ?x3081 ?x7054) (* 3.0 ?x6401)) (* 0.0 |v2:15|)) ?x1948) ?x5308)))
 (let (($x2964 (and (<= (+ (+ ?x7484 ?x4748) (* 7.0 |v15:2|)) ?x8076) (<= (+ (+ ?x2494 ?x4541) (* ?x856 |v16:1|)) ?x2579))))
 (let ((?x8238 (* 0.0 |v5:12|)))
 (let ((?x5531 (+ (+ (+ (+ (* 4.0 |v0:17|) ?x267) (* 16.0 |v13:4|)) (* 16.0 |v16:1|)) (* ?x3081 |v13:4|))))
 (let ((?x2269 (* 17.0 ?x2014)))
 (let ((?x7687 (* 12.0 ?x7112)))
 (let ((?x3429 (+ (+ (+ (+ (+ ?x1019 (* 0.0 |v0:17|)) ?x3353) (* 17.0 |v17:0|)) ?x7687) ?x8383)))
 (let (($x1650 (or (<= (+ ?x3429 ?x2269) 17.0) (<= (+ (+ ?x5531 (* ?x7369 ?x6528)) ?x8238) ?x6015))))
 (let ((?x2649 (* 2.0 |v3:14|)))
 (let ((?x1392 (* ?x5750 |v12:5|)))
 (let ((?x206 (+ (+ (+ (* 6.0 |v5:12|) (* 10.0 ?x2014)) (* 0.0 |v15:2|)) (* ?x4934 |v14:3|))))
 (let ((?x6825 (* 11.0 |v0:17|)))
 (let ((?x4866 (* 6.0 |v0:17|)))
 (let ((?x2775 (* 8.0 |v14:3|)))
 (let ((?x4653 (+ (+ (+ (+ (* 3.0 |v17:0|) (* 10.0 |v14:3|)) (* 16.0 ?x7054)) ?x2775) (* ?x8076 |v12:5|))))
 (let (($x2828 (or (<= (+ (+ ?x4653 ?x4866) ?x6825) 2.0) (<= (+ (+ (+ ?x206 ?x1392) (* ?x2579 |v15:2|)) ?x2649) 12.0))))
 (let ((?x1979 (* ?x7108 |v1:16|)))
 (let ((?x7671 (* ?x7369 |v0:17|)))
 (let ((?x9161 (* ?x9102 ?x2014)))
 (let ((?x257 (+ (+ (+ (+ (* ?x6828 |v17:0|) (* 13.0 |v13:4|)) (* ?x2364 |v0:17|)) ?x9161) (* ?x2579 |v12:5|))))
 (let ((?x3121 (* 7.0 |v1:16|)))
 (let ((?x2928 (+ (+ (+ (+ (* 18.0 ?x7054) (* ?x4934 |v16:1|)) (* 13.0 |v0:17|)) ?x3121) ?x1392)))
 (let (($x2550 (and (<= (+ (+ ?x2928 (* ?x8076 ?x6528)) ?x7845) ?x7172) (<= (+ (+ ?x257 ?x7671) ?x1979) 7.0))))
 (let (($x4775 (and (or (or $x2550 $x2828) (and $x1650 $x2964)) (or (and $x5113 $x5974) (or $x3757 $x8357)))))
 (let ((?x9319 (* 15.0 ?x6528)))
 (let ((?x6044 (+ (+ (+ (* ?x6152 |v16:1|) (* 3.0 |v2:15|)) (* 17.0 |v1:16|)) (* 19.0 |v16:1|))))
 (let ((?x5635 (* 6.0 ?x6528)))
 (let ((?x5399 (* 16.0 |v3:14|)))
 (let ((?x2495 (+ (+ (+ (+ (* 12.0 |v16:1|) (* ?x7172 |v3:14|)) (* ?x7369 |v1:16|)) ?x5399) ?x5635)))
 (let (($x6597 (and (<= (+ (+ ?x2495 |v4:13|) (* ?x5750 |v13:4|)) 13.0) (<= (+ (+ (+ ?x6044 ?x9319) ?x1931) (* ?x9102 |v14:3|)) ?x2563))))
 (let ((?x7115 (* ?x5750 |v5:12|)))
 (let ((?x6308 (* ?x8846 ?x7054)))
 (let ((?x4615 (+ (+ (+ (+ (* 20.0 |v15:2|) (* ?x6015 |v4:13|)) (* ?x7172 |v5:12|)) ?x6308) (* ?x8076 ?x7845))))
 (let ((?x3704 (* 13.0 |v15:2|)))
 (let ((?x8135 (* 15.0 |v5:12|)))
 (let ((?x1633 (* 9.0 |v4:13|)))
 (let ((?x1685 (* 18.0 |v17:0|)))
 (let ((?x6834 (+ (+ (+ (+ (* ?x856 |v12:5|) (* ?x3398 ?x6401)) (* ?x6152 |v17:0|)) ?x1685) ?x1633)))
 (let ((?x7082 (* 15.0 |v2:15|)))
 (let ((?x6921 (* 10.0 |v15:2|)))
 (let ((?x242 (+ (+ (+ (+ (* ?x6828 ?x6528) (* 16.0 |v2:15|)) (* ?x7172 |v0:17|)) ?x6921) (* ?x6937 |v13:4|))))
 (let (($x7875 (and (<= (+ (+ ?x242 ?x7082) (* 13.0 ?x2014)) ?x8076) (<= (+ (+ ?x6834 ?x8135) ?x3704) 6.0))))
 (let ((?x2539 (* 11.0 |v14:3|)))
 (let ((?x4462 (* ?x2364 |v1:16|)))
 (let ((?x7019 (+ (+ (+ (+ (* ?x3398 |v13:4|) (* 16.0 ?x7845)) (* ?x9102 ?x7054)) ?x9404) ?x4462)))
 (let ((?x8321 (* 12.0 ?x7845)))
 (let ((?x8161 (+ (+ (+ (+ ?x5635 (* ?x9102 |v12:5|)) (* 14.0 ?x6528)) (* ?x7369 ?x6401)) ?x1685)))
 (let (($x7164 (and (<= (+ (+ ?x8161 ?x1331) ?x8321) 13.0) (<= (+ (+ ?x7019 ?x3704) ?x2539) 9.0))))
 (let (($x1581 (or (or $x7164 $x7875) (or (<= (+ (+ ?x4615 (* ?x7369 ?x7054)) ?x7115) ?x4934) $x6597))))
 (let ((?x7395 (* ?x3398 |v1:16|)))
 (let ((?x7094 (* 8.0 |v12:5|)))
 (let ((?x7359 (* 5.0 |v5:12|)))
 (let ((?x4429 (+ (+ (+ (+ (* ?x2579 ?x6528) (* ?x6152 |v16:1|)) (* 15.0 |v17:0|)) ?x7359) ?x7094)))
 (let ((?x4452 (* ?x2579 |v1:16|)))
 (let ((?x7978 (+ (+ (+ (+ (+ ?x8221 (* 11.0 ?x6528)) (* 10.0 |v12:5|)) ?x1660) ?x1948) ?x4452)))
 (let ((?x5014 (* ?x9102 |v4:13|)))
 (let ((?x1062 (* ?x7172 |v1:16|)))
 (let ((?x7397 (+ (+ (+ (* 19.0 |v4:13|) (* 4.0 |v12:5|)) (* 11.0 ?x7054)) (* ?x6937 |v14:3|))))
 (let (($x4675 (or (<= (+ (+ (+ ?x7397 ?x5308) ?x1062) ?x5014) 18.0) (<= (+ ?x7978 ?x2384) 18.0))))
 (let ((?x8154 (* 17.0 |v16:1|)))
 (let ((?x1775 (* 14.0 |v5:12|)))
 (let ((?x115 (+ (+ (+ (+ (+ ?x8015 ?x5308) (* ?x9102 |v12:5|)) ?x2823) (* 13.0 |v13:4|)) ?x1775)))
 (let (($x2228 (or (<= (+ ?x115 ?x8154) ?x4934) (or $x4675 (<= (+ (+ ?x4429 ?x7395) (* ?x6828 |v13:4|)) 16.0)))))
 (let (($x2851 (and (or (or $x2228 $x1581) $x4775) (or $x1386 (and (or (and $x1966 $x305) (or $x6760 $x648)) $x3815)))))
 (let ((?x1975 (* 12.0 |v1:16|)))
 (let ((?x9160 (* ?x7108 ?x6528)))
 (let ((?x3122 (+ (+ (+ (+ (+ ?x5219 (* ?x7172 |v3:14|)) (* ?x5750 ?x7112)) ?x6755) ?x9160) ?x1975)))
 (let ((?x6452 (* ?x8130 |v0:17|)))
 (let ((?x8087 (+ (+ (+ (+ (+ (* ?x2563 ?x7054) ?x8757) ?x6913) (* ?x2364 ?x7112)) ?x6678) ?x6452)))
 (let ((?x847 (* ?x6828 |v1:16|)))
 (let ((?x6029 (+ (+ (+ (+ (* ?x4934 ?x6401) (* ?x7369 ?x6401)) (* 6.0 |v3:14|)) ?x4936) ?x4281)))
 (let ((?x2303 (* ?x7108 |v2:15|)))
 (let ((?x339 (* 14.0 |v2:15|)))
 (let ((?x3235 (* 6.0 |v4:13|)))
 (let ((?x8802 (+ (+ (+ (+ (* 14.0 ?x7054) (* ?x6937 |v0:17|)) (* 18.0 |v15:2|)) ?x3235) ?x339)))
 (let ((?x5905 (* ?x3398 ?x6401)))
 (let ((?x2645 (* ?x8846 |v5:12|)))
 (let ((?x1599 (+ (+ (+ (+ (* 12.0 ?x2014) (* ?x3398 |v16:1|)) ?x6528) (* 5.0 |v13:4|)) ?x2645)))
 (let (($x6604 (and (<= (+ (+ ?x1599 ?x5905) (* ?x2563 |v14:3|)) 7.0) (<= (+ (+ ?x8802 ?x1228) ?x2303) ?x8130))))
 (let (($x7152 (or $x6604 (or (<= (+ (+ ?x6029 ?x847) ?x6308) ?x7172) (<= (+ ?x8087 ?x8757) 14.0)))))
 (let ((?x6800 (* 8.0 ?x7054)))
 (let ((?x7797 (* ?x6152 |v4:13|)))
 (let ((?x2055 (* ?x8076 |v3:14|)))
 (let ((?x4682 (+ (+ (+ (+ (* ?x6828 |v0:17|) (* 0.0 |v0:17|)) (* ?x2563 |v13:4|)) ?x2055) ?x7797)))
 (let ((?x9332 (* ?x4934 ?x6401)))
 (let ((?x7478 (+ (+ (+ (+ (* ?x5750 ?x7845) (* 16.0 ?x7845)) (* 11.0 ?x6401)) ?x9332) (* 19.0 |v15:2|))))
 (let (($x8626 (and (<= (+ (+ ?x7478 ?x4143) (* ?x6152 ?x2014)) ?x4934) (<= (+ (+ ?x4682 (* 13.0 ?x6528)) ?x6800) ?x6828))))
 (let ((?x5520 (+ (+ (+ (+ (+ ?x6452 (* ?x2579 ?x6401)) ?x4541) ?x3885) (* 7.0 ?x7845)) ?x9160)))
 (let ((?x6016 (+ (+ (+ (+ (* 14.0 |v12:5|) (* ?x4934 |v3:14|)) (* ?x4934 ?x6528)) ?x261) ?x7094)))
 (let (($x7447 (or (<= (+ (+ ?x6016 ?x3359) ?x2775) 11.0) (<= (+ ?x5520 (* ?x4934 |v13:4|)) ?x6152))))
 (let ((?x8375 (* 9.0 |v13:4|)))
 (let ((?x3035 (* 8.0 |v15:2|)))
 (let ((?x573 (+ (+ (+ (+ (* ?x2563 |v0:17|) (* ?x6937 ?x6528)) (* 4.0 |v15:2|)) ?x4001) ?x996)))
 (let (($x3648 (or (<= (+ (+ ?x573 ?x3035) ?x8375) ?x5750) (and (or (and $x7447 $x8626) $x7152) (<= (+ ?x3122 (* ?x6937 ?x2014)) ?x2364)))))
 (let ((?x8172 (* 20.0 |v13:4|)))
 (let ((?x3180 (* ?x2579 |v3:14|)))
 (let ((?x4459 (* ?x856 |v5:12|)))
 (let ((?x4340 (+ (+ (+ (+ (* 0.0 |v16:1|) (* 16.0 |v1:16|)) ?x6452) (* 18.0 |v15:2|)) ?x4459)))
 (let (($x4184 (not (= |v6:11_st| (RMk1 val!9875)))))
 (let (($x3947 (not (= |v7:10_st| (RMk1 val!9874)))))
 (let (($x3746 (not (= |v8:9_st| (RMk1 val!9873)))))
 (let (($x3505 (not (= |v9:8_st| (RMk1 val!9872)))))
 (let (($x1202 (not (= |v10:7_st| (RMk1 val!9871)))))
 (let (($x2351 (not (= |v11:6_st| (RMk1 val!9870)))))
 (and $x2351 $x1202 $x3505 $x3746 $x3947 $x4184 (or (or (<= (+ (+ ?x4340 ?x3180) ?x8172) 3.0) $x3648) $x2851))))))))))))))))))))))))))))))))))))))))))))))))))))))))))))))))))))))))))))))))))))))))))))))))))))))))))))))))))))))))))))))))))))))))))))))))))))))))))))))))))))))))))))))))))))))))))))))))))))))))))))))))))))))))))))))))))))))))))))))))))))))))))))))))))))))))
 )
 )
 )
 )
 )
 )
 )
 )
 )
 )
 )
 )
 )
 )
 )
 )
 )
 )
(check-sat)
